db/data/108682287221336159331660628485176891480.z3.out
-------------------
2500.129897807
